79
25
15
96
31
104
59
44
65
45
67
32
105
13
75
95
47
37
4
55
11
26
43
102
78
46
18
88
35
69
90
39
40
110
22
10
19
77
61
20
6
107
68
51
92
30
103
99
29
41
89
9
3
86
2
100
106
21
97
8
85
36
91
57
60
70
81
27
23
98
58
50
84
72
62
64
33
49
54
71
108
48
93
87
12
66
94
73
17
5
63
83
82
53
56
74
109
34
42
52
